NAME 
ROWS
 N  OBJ
 L  R0      
 L  R1      
 E  R2      
 E  R3      
 E  R4      
 E  R5      
 E  R6      
COLUMNS
    MARKER    'MARKER'                 'INTORG'
    I0(4)     OBJ       52
    I0(4)     R0        73
    I0(4)     R1        -90
    I0(4)     R2        15
    I0(4)     R6        1
    I1(4)     OBJ       -76
    I1(4)     R0        167
    I1(4)     R1        -22
    I1(4)     R3        15
    I1(4)     R6        1
    MARKER    'MARKER'                 'INTEND'
    C2(3)     OBJ       7
    C2(3)     R0        9
    C2(3)     R3        11
    C2(3)     R4        10
    C3(5)     OBJ       1
    C3(5)     R1        5
    C3(5)     R2        19
    C3(5)     R3        1
    C3(5)     R4        7
    C3(5)     R5        16
    C4(4)     OBJ       -3
    C4(4)     R0        -1
    C4(4)     R1        -1
    C4(4)     R4        5
    C4(4)     R5        4
    C5(1)     R2        1
    C6(1)     R3        1
    C7(1)     R4        1
    C8(1)     R5        1
    C9(1)     R6        1
RHS
    RHS1      R0        -11.6
    RHS1      R1        -11.6
    RHS1      R2        88
    RHS1      R3        67
    RHS1      R4        58
    RHS1      R5        58
BOUNDS
 UP BND1      I0(4)     1
 UP BND1      I1(4)     1
ENDATA
